     Program PWSCF v.7.2 starts on 20Mar2025 at 10:57: 8

     Waiting for input...
     Reading input from standard input

     Current dimensions of program PWSCF are:
     Max number of different atomic species (ntypx) = 10
     Max number of k-points (npk) =  40000
     Max angular momentum in pseudopotentials (lmaxx) =  4
     file C.pbe-n-kjpaw_psl.1.0.0.UPF: wavefunction(s)  2S 2P renormalized

     Using Slab Decomposition

     bravais-lattice index     =            4
     lattice parameter (alat)  =       4.6540  a.u.
     unit-cell volume          =      58.4904 (a.u.)^3
     number of atoms/cell      =            2
     number of atomic types    =            1
     number of electrons       =         8.00
     number of Kohn-Sham states=            4
     kinetic-energy cutoff     =      20.0000  Ry
     charge density cutoff     =     200.0000  Ry
     scf convergence threshold =      1.0E-08
     mixing beta               =       0.7000
     number of iterations used =            8  plain     mixing
     Exchange-correlation= SLA  PW   PBX  PBC
                           (   1   4   3   4   0   0   0)

     celldm(1)=   4.654000  celldm(2)=   0.000000  celldm(3)=   0.670000
     celldm(4)=   0.000000  celldm(5)=   0.000000  celldm(6)=   0.000000

     crystal axes: (cart. coord. in units of alat)
               a(1) = (   1.000000   0.000000   0.000000 )
               a(2) = (  -0.500000   0.866025   0.000000 )
               a(3) = (   0.000000   0.000000   0.670000 )

     reciprocal axes: (cart. coord. in units 2 pi/alat)
               b(1) = (  1.000000  0.577350 -0.000000 )
               b(2) = (  0.000000  1.154701  0.000000 )
               b(3) = (  0.000000 -0.000000  1.492537 )

     PseudoPot. # 1 for C  read from file:
     /root/Desktop/pseudo/C.pbe-n-kjpaw_psl.1.0.0.UPF
     MD5 check sum: 5d2aebdfa2cae82b50a7e79e9516da0f
     Pseudo is Projector augmented-wave + core cor, Zval =  4.0
     Generated using "atomic" code by A. Dal Corso  v.5.1
     Shape of augmentation charge: PSQ
     Using radial grid of 1073 points,  4 beta functions with:
                l(1) =   0
                l(2) =   0
                l(3) =   1
                l(4) =   1
     Q(r) pseudized with 0 coefficients

     atomic species   valence    mass     pseudopotential
        C              4.00    12.01070     C ( 1.00)

     24 Sym. Ops., with inversion, found (12 have fractional translation)

   Cartesian axes

     site n.     atom                  positions (alat units)
         1           C   tau(   1) = (   0.0000000   0.0000000   0.0000000  )
         2           C   tau(   2) = (   0.0000000   0.5773503   0.0000000  )

     number of k points=    12
                       cart. coord. in units 2pi/alat
        k(    1) = (   0.0000000   0.0000000   0.0000000), wk =   0.0246914
        k(    2) = (   0.0000000   0.1283001   0.0000000), wk =   0.1481481
        k(    3) = (   0.0000000   0.2566001   0.0000000), wk =   0.1481481
        k(    4) = (   0.0000000   0.3849002   0.0000000), wk =   0.1481481
        k(    5) = (   0.0000000   0.5132002   0.0000000), wk =   0.1481481
        k(    6) = (   0.1111111   0.1924501   0.0000000), wk =   0.1481481
        k(    7) = (   0.1111111   0.3207501   0.0000000), wk =   0.2962963
        k(    8) = (   0.1111111   0.4490502   0.0000000), wk =   0.2962963
        k(    9) = (   0.1111111   0.5773503   0.0000000), wk =   0.1481481
        k(   10) = (   0.2222222   0.3849002   0.0000000), wk =   0.1481481
        k(   11) = (   0.2222222   0.5132002   0.0000000), wk =   0.2962963
        k(   12) = (   0.3333333   0.5773503   0.0000000), wk =   0.0493827

     Check: negative core charge=   -0.000082

     Initial potential from superposition of free atoms

     starting charge       7.9999, renormalised to       8.0000
     Starting wfcs are    8 randomized atomic wfcs

     Self-consistent Calculation

     iteration #  1     ecut=    20.00 Ry     beta= 0.70
     Davidson diagonalization with overlap
     ethr =  1.00E-02,  avg # of iterations =  2.1

     Threshold (ethr) on eigenvalues was too large:
     Diagonalizing with lowered threshold

     Davidson diagonalization with overlap
     ethr =  3.92E-04,  avg # of iterations =  2.2

     total energy              =     -36.66601947 Ry
     estimated scf accuracy    <       0.03362030 Ry

[...]

     iteration #  4     ecut=    20.00 Ry     beta= 0.70
     Davidson diagonalization with overlap
     c_bands:  1 eigenvalues not converged
     ethr =  3.29E-07,  avg # of iterations =  5.5

[...]

     iteration # 10     ecut=    20.00 Ry     beta= 0.70
     Davidson diagonalization with overlap
     c_bands:  1 eigenvalues not converged
     ethr =  8.39E-09,  avg # of iterations =  5.8

[...]

     total energy              =     -36.66778264 Ry
     estimated scf accuracy    <       0.00000003 Ry

     iteration # 16     ecut=    20.00 Ry     beta= 0.70
     Davidson diagonalization with overlap
     ethr =  3.21E-10,  avg # of iterations =  1.8

     End of self-consistent calculation

          k = 0.0000 0.0000 0.0000 (    83 PWs)   bands (ev):

    -7.5371  11.6365  11.6365  22.2436

[...]

          k = 0.3333 0.5774 0.0000 (    93 PWs)   bands (ev):

    -0.3252  -0.3252   3.5668  28.5258

     highest occupied level (ev):    28.5258

!    total energy              =     -36.66778264 Ry
     total all-electron energy =      -152.195978 Ry
     estimated scf accuracy    <          8.6E-11 Ry

     The total energy is the sum of the following terms:
     one-electron contribution =      12.36361810 Ry
     hartree contribution      =       1.07192858 Ry
     xc contribution           =      -9.59061575 Ry
     ewald contribution        =     -28.08933684 Ry
     one-center paw contrib.   =     -12.42337673 Ry

     convergence has been achieved in  16 iterations

     Writing all to output data dir ./graphene.save/

     General routines

   This run was terminated on:  10:57:15  20Mar2025

   JOB DONE.